% File represents an instance of a Composite Structure problem to be solved by a CP framework
% Created on 2025-03-25 14:06:10.336
T = 52;
n = 4;
m = 4;
edges = [(1, 2),
(3, 4),
(3, 1),
(4, 2)];
counts = [|18, 18, 4, 8,
|18, 18, 4, 2,
|18, 22, 4, 8,
|18, 22, 4, 2|];
